p tdp 20 62
1 6
1 8
1 12
1 15
1 19
2 9
2 12
2 13
2 15
2 20
3 8
3 12
3 14
3 18
4 9
4 18
5 7
5 9
5 10
5 15
5 18
6 8
6 9
6 11
6 15
6 16
6 17
6 18
7 9
7 10
7 12
7 14
7 15
7 16
7 17
7 19
8 9
8 11
8 12
8 14
8 18
8 19
9 12
9 14
9 18
10 12
10 13
10 17
11 17
12 17
12 19
13 14
13 17
14 16
14 20
16 17
16 18
16 19
17 18
17 19
17 20
18 20
